(set-logic QF_NRA)
(set-info :source |Benchmarks generated from hycomp (https://es-static.fbk.eu/tools/hycomp/). BMC instances of non-linear hybrid automata taken from: Alessandro Cimatti, Sergio Mover, Stefano Tonetta, A quantifier-free SMT encoding of non-linear hybrid automata, FMCAD 2012 and Alessandro Cimatti, Sergio Mover, Stefano Tonetta, Quantier-free encoding of invariants for Hybrid Systems, Formal Methods in System Design. This instance solves a BMC problem of depth 1 and uses the quantifier free encoding encoding. Contacts: Sergio Mover (mover@fbk.eu), Stefano Tonetta (tonettas@fbk.eu), Alessandro Cimatti (cimatti@fbk.eu).|)
(set-info :smt-lib-version 2.0)
(set-info :category "industrial")
(set-info :status unsat)
;; MathSAT API call trace
;; generated on Mon Mar 19 10:45:06 2012
(declare-fun b.event_is_timed__AT1 () Bool)
(declare-fun b.time__AT0 () Real)
(declare-fun b.speed_y__AT1 () Real)
(declare-fun b.y__AT0 () Real)
(declare-fun b.counter.0__AT0 () Bool)
(declare-fun b.counter.1__AT0 () Bool)
(declare-fun b.time__AT1 () Real)
(declare-fun b.bool_atom__AT0 () Bool)
(declare-fun b.counter.2__AT0 () Bool)
(declare-fun b.delta__AT1 () Real)
(declare-fun b.EVENT.0__AT1 () Bool)
(declare-fun b.delta__AT0 () Real)
(declare-fun b.speed_x__AT1 () Real)
(declare-fun b.EVENT.0__AT0 () Bool)
(declare-fun b.x__AT1 () Real)
(declare-fun b.counter.0__AT1 () Bool)
(declare-fun b.EVENT.1__AT0 () Bool)
(declare-fun b.counter.1__AT1 () Bool)
(declare-fun b.counter.2__AT1 () Bool)
(declare-fun b.counter.3__AT1 () Bool)
(declare-fun b.bool_atom__AT1 () Bool)
(declare-fun b.EVENT.1__AT1 () Bool)
(declare-fun b.speed_loss__AT0 () Real)
(declare-fun b.counter.3__AT0 () Bool)
(declare-fun b.y__AT1 () Real)
(declare-fun b.x__AT0 () Real)
(declare-fun b.speed_y__AT0 () Real)
(declare-fun b.event_is_timed__AT0 () Bool)
(declare-fun b.speed_x__AT0 () Real)
(assert (let ((.def_364 (* (- 1.0) b.speed_x__AT1)))
(let ((.def_365 (* b.speed_x__AT1 .def_364)))
(let ((.def_366 (* (- 1.0) .def_365)))
(let ((.def_397 (* 2.0 .def_366)))
(let ((.def_415 (* (- 1.0) .def_397)))
(let ((.def_416 (* b.delta__AT1 .def_415)))
(let ((.def_417 (* (- 5.0) .def_416)))
(let ((.def_297 (* (- 1.0) b.x__AT1)))
(let ((.def_377 (* b.speed_x__AT1 .def_297)))
(let ((.def_402 (* (- 5.0) .def_377)))
(let ((.def_422 (+ .def_402 .def_417)))
(let ((.def_372 (* b.x__AT1 .def_364)))
(let ((.def_400 (* (- 5.0) .def_372)))
(let ((.def_423 (+ .def_400 .def_422)))
(let ((.def_404 (* (- 49.0) b.delta__AT1)))
(let ((.def_424 (+ .def_404 .def_423)))
(let ((.def_406 (* 5.0 b.speed_y__AT1)))
(let ((.def_425 (+ .def_406 .def_424)))
(let ((.def_426 (<= .def_425 0.0 )))
(let ((.def_378 (* (- 1.0) .def_377)))
(let ((.def_373 (* (- 1.0) .def_372)))
(let ((.def_394 (+ .def_373 .def_378)))
(let ((.def_395 (+ b.speed_y__AT1 .def_394)))
(let ((.def_414 (<= .def_395 0.0 )))
(let ((.def_427 (and .def_414 .def_426)))
(let ((.def_398 (* b.delta__AT1 .def_397)))
(let ((.def_399 (* 5.0 .def_398)))
(let ((.def_408 (+ .def_402 .def_399)))
(let ((.def_409 (+ .def_400 .def_408)))
(let ((.def_410 (+ .def_404 .def_409)))
(let ((.def_411 (+ .def_406 .def_410)))
(let ((.def_412 (<= 0.0 .def_411)))
(let ((.def_396 (<= 0.0 .def_395)))
(let ((.def_413 (and .def_396 .def_412)))
(let ((.def_428 (or .def_413 .def_427)))
(let ((.def_379 (* b.delta__AT1 .def_378)))
(let ((.def_380 (* 10.0 .def_379)))
(let ((.def_374 (* b.delta__AT1 .def_373)))
(let ((.def_375 (* 10.0 .def_374)))
(let ((.def_386 (+ .def_375 .def_380)))
(let ((.def_363 (* b.delta__AT1 b.delta__AT1)))
(let ((.def_367 (* .def_363 .def_366)))
(let ((.def_368 (* 10.0 .def_367)))
(let ((.def_387 (+ .def_368 .def_386)))
(let ((.def_370 (* (- 49.0) .def_363)))
(let ((.def_388 (+ .def_370 .def_387)))
(let ((.def_361 (* b.speed_y__AT1 b.delta__AT1)))
(let ((.def_362 (* 10.0 .def_361)))
(let ((.def_389 (+ .def_362 .def_388)))
(let ((.def_343 (* b.x__AT1 .def_297)))
(let ((.def_382 (* (- 10.0) .def_343)))
(let ((.def_390 (+ .def_382 .def_389)))
(let ((.def_384 (* 10.0 b.y__AT1)))
(let ((.def_391 (+ .def_384 .def_390)))
(let ((.def_392 (<= 0.0 .def_391)))
(let ((.def_344 (<= .def_343 b.y__AT1)))
(let ((.def_393 (and .def_344 .def_392)))
(let ((.def_429 (and .def_393 .def_428)))
(let ((.def_76 (<= b.speed_loss__AT0 (/ 1 2))))
(let ((.def_73 (<= (/ 1 10) b.speed_loss__AT0)))
(let ((.def_77 (and .def_73 .def_76)))
(let ((.def_430 (and .def_77 .def_429)))
(let ((.def_45 (not b.counter.0__AT0)))
(let ((.def_353 (or b.counter.1__AT0 .def_45)))
(let ((.def_354 (or b.counter.2__AT0 .def_353)))
(let ((.def_48 (not b.counter.2__AT0)))
(let ((.def_43 (not b.counter.1__AT0)))
(let ((.def_46 (and .def_43 .def_45)))
(let ((.def_352 (or .def_46 .def_48)))
(let ((.def_355 (and .def_352 .def_354)))
(let ((.def_356 (or b.counter.3__AT0 .def_355)))
(let ((.def_349 (or .def_46 b.counter.2__AT0)))
(let ((.def_348 (or .def_43 .def_48)))
(let ((.def_350 (and .def_348 .def_349)))
(let ((.def_51 (not b.counter.3__AT0)))
(let ((.def_351 (or .def_51 .def_350)))
(let ((.def_357 (and .def_351 .def_356)))
(let ((.def_345 (and .def_77 .def_344)))
(let ((.def_340 (not b.EVENT.0__AT1)))
(let ((.def_338 (not b.EVENT.1__AT1)))
(let ((.def_341 (or .def_338 .def_340)))
(let ((.def_9 (not b.counter.0__AT1)))
(let ((.def_6 (not b.counter.1__AT1)))
(let ((.def_331 (or .def_6 .def_9)))
(let ((.def_335 (or b.counter.3__AT1 .def_331)))
(let ((.def_332 (or b.counter.2__AT1 .def_331)))
(let ((.def_4 (not b.counter.2__AT1)))
(let ((.def_330 (or .def_4 .def_9)))
(let ((.def_333 (and .def_330 .def_332)))
(let ((.def_14 (not b.counter.3__AT1)))
(let ((.def_334 (or .def_14 .def_333)))
(let ((.def_336 (and .def_334 .def_335)))
(let ((.def_342 (and .def_336 .def_341)))
(let ((.def_346 (and .def_342 .def_345)))
(let ((.def_325 (<= 0.0 b.delta__AT0)))
(let ((.def_64 (not b.EVENT.0__AT0)))
(let ((.def_62 (not b.EVENT.1__AT0)))
(let ((.def_159 (and .def_62 .def_64)))
(let ((.def_161 (not .def_159)))
(let ((.def_326 (or .def_161 .def_325)))
(let ((.def_327 (or b.EVENT.1__AT0 .def_326)))
(let ((.def_200 (= b.bool_atom__AT0 b.bool_atom__AT1)))
(let ((.def_195 (= b.counter.0__AT1 b.counter.0__AT0)))
(let ((.def_193 (= b.counter.1__AT1 b.counter.1__AT0)))
(let ((.def_191 (= b.counter.2__AT1 b.counter.2__AT0)))
(let ((.def_190 (= b.counter.3__AT1 b.counter.3__AT0)))
(let ((.def_192 (and .def_190 .def_191)))
(let ((.def_194 (and .def_192 .def_193)))
(let ((.def_196 (and .def_194 .def_195)))
(let ((.def_321 (and .def_196 .def_200)))
(let ((.def_322 (or .def_161 .def_321)))
(let ((.def_323 (or b.EVENT.1__AT0 .def_322)))
(let ((.def_310 (* (- 10.0) b.y__AT1)))
(let ((.def_85 (* b.delta__AT0 b.delta__AT0)))
(let ((.def_94 (* (- 49.0) .def_85)))
(let ((.def_313 (+ .def_94 .def_310)))
(let ((.def_83 (* b.speed_y__AT0 b.delta__AT0)))
(let ((.def_84 (* 10.0 .def_83)))
(let ((.def_314 (+ .def_84 .def_313)))
(let ((.def_109 (* 10.0 b.y__AT0)))
(let ((.def_315 (+ .def_109 .def_314)))
(let ((.def_316 (= .def_315 0.0 )))
(let ((.def_304 (* (- 5.0) b.speed_y__AT1)))
(let ((.def_131 (* (- 49.0) b.delta__AT0)))
(let ((.def_305 (+ .def_131 .def_304)))
(let ((.def_133 (* 5.0 b.speed_y__AT0)))
(let ((.def_306 (+ .def_133 .def_305)))
(let ((.def_307 (= .def_306 0.0 )))
(let ((.def_296 (* b.speed_x__AT0 b.delta__AT0)))
(let ((.def_300 (+ .def_297 .def_296)))
(let ((.def_301 (+ b.x__AT0 .def_300)))
(let ((.def_302 (= .def_301 0.0 )))
(let ((.def_185 (= b.speed_x__AT0 b.speed_x__AT1)))
(let ((.def_303 (and .def_185 .def_302)))
(let ((.def_308 (and .def_303 .def_307)))
(let ((.def_317 (and .def_308 .def_316)))
(let ((.def_318 (or .def_161 .def_317)))
(let ((.def_182 (= b.y__AT0 b.y__AT1)))
(let ((.def_179 (= b.x__AT0 b.x__AT1)))
(let ((.def_290 (and .def_179 .def_182)))
(let ((.def_291 (and .def_185 .def_290)))
(let ((.def_188 (= b.speed_y__AT0 b.speed_y__AT1)))
(let ((.def_292 (and .def_188 .def_291)))
(let ((.def_287 (= b.delta__AT0 0.0 )))
(let ((.def_288 (and .def_159 .def_287)))
(let ((.def_289 (not .def_288)))
(let ((.def_293 (or .def_289 .def_292)))
(let ((.def_294 (or b.EVENT.1__AT0 .def_293)))
(let ((.def_279 (and .def_185 .def_188)))
(let ((.def_280 (and .def_196 .def_279)))
(let ((.def_281 (or b.bool_atom__AT0 .def_280)))
(let ((.def_255 (or .def_9 b.counter.0__AT0)))
(let ((.def_254 (or b.counter.0__AT1 .def_45)))
(let ((.def_256 (and .def_254 .def_255)))
(let ((.def_257 (and .def_6 .def_256)))
(let ((.def_258 (or b.counter.1__AT0 .def_257)))
(let ((.def_253 (or b.counter.1__AT1 .def_43)))
(let ((.def_259 (and .def_253 .def_258)))
(let ((.def_270 (and .def_4 .def_259)))
(let ((.def_271 (or b.counter.2__AT0 .def_270)))
(let ((.def_265 (and .def_6 .def_45)))
(let ((.def_266 (or b.counter.1__AT0 .def_265)))
(let ((.def_267 (and .def_253 .def_266)))
(let ((.def_268 (and b.counter.2__AT1 .def_267)))
(let ((.def_269 (or .def_48 .def_268)))
(let ((.def_272 (and .def_269 .def_271)))
(let ((.def_273 (and b.counter.3__AT1 .def_272)))
(let ((.def_274 (or b.counter.3__AT0 .def_273)))
(let ((.def_260 (and b.counter.2__AT1 .def_259)))
(let ((.def_261 (or b.counter.2__AT0 .def_260)))
(let ((.def_249 (or b.counter.1__AT1 b.counter.1__AT0)))
(let ((.def_247 (and .def_6 b.counter.0__AT1)))
(let ((.def_248 (or .def_43 .def_247)))
(let ((.def_250 (and .def_248 .def_249)))
(let ((.def_251 (and .def_4 .def_250)))
(let ((.def_252 (or .def_48 .def_251)))
(let ((.def_262 (and .def_252 .def_261)))
(let ((.def_263 (and .def_14 .def_262)))
(let ((.def_264 (or .def_51 .def_263)))
(let ((.def_275 (and .def_264 .def_274)))
(let ((.def_238 (* b.speed_y__AT0 b.speed_y__AT0)))
(let ((.def_237 (* b.speed_x__AT0 b.speed_x__AT0)))
(let ((.def_239 (+ .def_237 .def_238)))
(let ((.def_219 (* (- 1.0) b.speed_loss__AT0)))
(let ((.def_220 (+ 1.0 .def_219)))
(let ((.def_236 (* .def_220 .def_220)))
(let ((.def_240 (* .def_236 .def_239)))
(let ((.def_242 (* (- 1.0) .def_240)))
(let ((.def_233 (* b.speed_y__AT1 b.speed_y__AT1)))
(let ((.def_243 (+ .def_233 .def_242)))
(let ((.def_231 (* b.speed_x__AT1 b.speed_x__AT1)))
(let ((.def_244 (+ .def_231 .def_243)))
(let ((.def_245 (= .def_244 0.0 )))
(let ((.def_224 (* b.speed_y__AT0 .def_220)))
(let ((.def_207 (* (- 2.0) b.x__AT0)))
(let ((.def_208 (* (- 1.0) .def_207)))
(let ((.def_221 (* .def_208 .def_220)))
(let ((.def_222 (* b.speed_x__AT0 .def_221)))
(let ((.def_227 (+ .def_222 .def_224)))
(let ((.def_216 (* (- 2.0) b.x__AT1)))
(let ((.def_217 (* (- 1.0) .def_216)))
(let ((.def_218 (* b.speed_x__AT1 .def_217)))
(let ((.def_228 (+ .def_218 .def_227)))
(let ((.def_229 (+ b.speed_y__AT1 .def_228)))
(let ((.def_230 (= .def_229 0.0 )))
(let ((.def_246 (and .def_230 .def_245)))
(let ((.def_276 (and .def_246 .def_275)))
(let ((.def_215 (not b.bool_atom__AT0)))
(let ((.def_277 (or .def_215 .def_276)))
(let ((.def_209 (* b.speed_x__AT0 .def_208)))
(let ((.def_210 (+ b.speed_y__AT0 .def_209)))
(let ((.def_211 (<= 0.0 .def_210)))
(let ((.def_212 (not .def_211)))
(let ((.def_68 (* (- 1.0) b.x__AT0)))
(let ((.def_69 (* b.x__AT0 .def_68)))
(let ((.def_205 (= b.y__AT0 .def_69)))
(let ((.def_213 (and .def_205 .def_212)))
(let ((.def_214 (= b.bool_atom__AT0 .def_213)))
(let ((.def_278 (and .def_214 .def_277)))
(let ((.def_282 (and .def_278 .def_281)))
(let ((.def_283 (and .def_179 .def_282)))
(let ((.def_284 (and .def_182 .def_283)))
(let ((.def_285 (or .def_159 .def_284)))
(let ((.def_286 (or b.EVENT.1__AT0 .def_285)))
(let ((.def_295 (and .def_286 .def_294)))
(let ((.def_319 (and .def_295 .def_318)))
(let ((.def_166 (= b.time__AT0 b.time__AT1)))
(let ((.def_180 (and .def_166 .def_179)))
(let ((.def_183 (and .def_180 .def_182)))
(let ((.def_186 (and .def_183 .def_185)))
(let ((.def_189 (and .def_186 .def_188)))
(let ((.def_197 (and .def_189 .def_196)))
(let ((.def_201 (and .def_197 .def_200)))
(let ((.def_202 (or .def_62 .def_201)))
(let ((.def_169 (* (- 1.0) b.time__AT1)))
(let ((.def_172 (+ b.delta__AT0 .def_169)))
(let ((.def_173 (+ b.time__AT0 .def_172)))
(let ((.def_174 (= .def_173 0.0 )))
(let ((.def_175 (or .def_161 .def_174)))
(let ((.def_176 (or b.EVENT.1__AT0 .def_175)))
(let ((.def_167 (or .def_159 .def_166)))
(let ((.def_168 (or b.EVENT.1__AT0 .def_167)))
(let ((.def_177 (and .def_168 .def_176)))
(let ((.def_203 (and .def_177 .def_202)))
(let ((.def_163 (= .def_161 b.event_is_timed__AT1)))
(let ((.def_160 (= b.event_is_timed__AT0 .def_159)))
(let ((.def_164 (and .def_160 .def_163)))
(let ((.def_204 (and .def_164 .def_203)))
(let ((.def_320 (and .def_204 .def_319)))
(let ((.def_324 (and .def_320 .def_323)))
(let ((.def_328 (and .def_324 .def_327)))
(let ((.def_329 (and .def_62 .def_328)))
(let ((.def_347 (and .def_329 .def_346)))
(let ((.def_358 (and .def_347 .def_357)))
(let ((.def_86 (* (- 1.0) b.speed_x__AT0)))
(let ((.def_87 (* b.speed_x__AT0 .def_86)))
(let ((.def_88 (* (- 1.0) .def_87)))
(let ((.def_122 (* 2.0 .def_88)))
(let ((.def_142 (* (- 1.0) .def_122)))
(let ((.def_143 (* b.delta__AT0 .def_142)))
(let ((.def_144 (* (- 5.0) .def_143)))
(let ((.def_101 (* b.speed_x__AT0 .def_68)))
(let ((.def_129 (* (- 5.0) .def_101)))
(let ((.def_149 (+ .def_129 .def_144)))
(let ((.def_96 (* b.x__AT0 .def_86)))
(let ((.def_127 (* (- 5.0) .def_96)))
(let ((.def_150 (+ .def_127 .def_149)))
(let ((.def_151 (+ .def_131 .def_150)))
(let ((.def_152 (+ .def_133 .def_151)))
(let ((.def_153 (<= .def_152 0.0 )))
(let ((.def_102 (* (- 1.0) .def_101)))
(let ((.def_97 (* (- 1.0) .def_96)))
(let ((.def_119 (+ .def_97 .def_102)))
(let ((.def_120 (+ b.speed_y__AT0 .def_119)))
(let ((.def_141 (<= .def_120 0.0 )))
(let ((.def_154 (and .def_141 .def_153)))
(let ((.def_123 (* b.delta__AT0 .def_122)))
(let ((.def_125 (* 5.0 .def_123)))
(let ((.def_135 (+ .def_129 .def_125)))
(let ((.def_136 (+ .def_127 .def_135)))
(let ((.def_137 (+ .def_131 .def_136)))
(let ((.def_138 (+ .def_133 .def_137)))
(let ((.def_139 (<= 0.0 .def_138)))
(let ((.def_121 (<= 0.0 .def_120)))
(let ((.def_140 (and .def_121 .def_139)))
(let ((.def_155 (or .def_140 .def_154)))
(let ((.def_103 (* b.delta__AT0 .def_102)))
(let ((.def_104 (* 10.0 .def_103)))
(let ((.def_98 (* b.delta__AT0 .def_97)))
(let ((.def_99 (* 10.0 .def_98)))
(let ((.def_111 (+ .def_99 .def_104)))
(let ((.def_89 (* .def_85 .def_88)))
(let ((.def_90 (* 10.0 .def_89)))
(let ((.def_112 (+ .def_90 .def_111)))
(let ((.def_113 (+ .def_94 .def_112)))
(let ((.def_114 (+ .def_84 .def_113)))
(let ((.def_107 (* (- 10.0) .def_69)))
(let ((.def_115 (+ .def_107 .def_114)))
(let ((.def_116 (+ .def_109 .def_115)))
(let ((.def_117 (<= 0.0 .def_116)))
(let ((.def_70 (<= .def_69 b.y__AT0)))
(let ((.def_118 (and .def_70 .def_117)))
(let ((.def_156 (and .def_118 .def_155)))
(let ((.def_157 (and .def_77 .def_156)))
(let ((.def_78 (and .def_70 .def_77)))
(let ((.def_65 (or .def_62 .def_64)))
(let ((.def_55 (or .def_43 .def_45)))
(let ((.def_59 (or b.counter.3__AT0 .def_55)))
(let ((.def_56 (or b.counter.2__AT0 .def_55)))
(let ((.def_54 (or .def_45 .def_48)))
(let ((.def_57 (and .def_54 .def_56)))
(let ((.def_58 (or .def_51 .def_57)))
(let ((.def_60 (and .def_58 .def_59)))
(let ((.def_66 (and .def_60 .def_65)))
(let ((.def_79 (and .def_66 .def_78)))
(let ((.def_49 (and .def_46 .def_48)))
(let ((.def_52 (and .def_49 .def_51)))
(let ((.def_40 (= b.speed_y__AT0 1.0 )))
(let ((.def_37 (= b.speed_x__AT0 1.0 )))
(let ((.def_33 (= b.y__AT0 10.0 )))
(let ((.def_29 (= b.x__AT0 0.0 )))
(let ((.def_25 (= b.time__AT0 0.0 )))
(let ((.def_27 (and .def_25 b.event_is_timed__AT0)))
(let ((.def_30 (and .def_27 .def_29)))
(let ((.def_34 (and .def_30 .def_33)))
(let ((.def_38 (and .def_34 .def_37)))
(let ((.def_41 (and .def_38 .def_40)))
(let ((.def_53 (and .def_41 .def_52)))
(let ((.def_80 (and .def_53 .def_79)))
(let ((.def_17 (or b.counter.1__AT1 .def_9)))
(let ((.def_18 (or b.counter.2__AT1 .def_17)))
(let ((.def_10 (and .def_6 .def_9)))
(let ((.def_16 (or .def_4 .def_10)))
(let ((.def_19 (and .def_16 .def_18)))
(let ((.def_20 (or b.counter.3__AT1 .def_19)))
(let ((.def_11 (or b.counter.2__AT1 .def_10)))
(let ((.def_7 (or .def_4 .def_6)))
(let ((.def_12 (and .def_7 .def_11)))
(let ((.def_15 (or .def_12 .def_14)))
(let ((.def_21 (and .def_15 .def_20)))
(let ((.def_22 (not .def_21)))
(let ((.def_81 (and .def_22 .def_80)))
(let ((.def_158 (and .def_81 .def_157)))
(let ((.def_359 (and .def_158 .def_358)))
(let ((.def_431 (and .def_359 .def_430)))
.def_431))))))))))))))))))))))))))))))))))))))))))))))))))))))))))))))))))))))))))))))))))))))))))))))))))))))))))))))))))))))))))))))))))))))))))))))))))))))))))))))))))))))))))))))))))))))))))))))))))))))))))))))))))))))))))))))))))))))))))))))))))))))))))))))))))))))))))))))))))))))))))))))))))))))))))))))))))))))))))))))))))))))))))))))))))))))))))
(check-sat)
(exit)
